SCIP version 5.0.0 [precision: 8 byte] [memory: block] [mode: optimized] [LP solver: NONE] [GitHash: 3bbd232]
Copyright (C) 2002-2017 Konrad-Zuse-Zentrum fuer Informationstechnik Berlin (ZIB)

External codes: 
  Readline EditLine w  GNU library for command line editing (gnu.org/s/readline)
  CppAD 20160000.1     Algorithmic Differentiation of C++ algorithms developed by B. Bell (www.coin-or.org/CppAD)
  ZLIB 1.2.5           General purpose compression library by J. Gailly and M. Adler (zlib.net)
  GMP 6.1.2            GNU Multiple Precision Arithmetic Library developed by T. Granlund (gmplib.org)

user parameter file <scip.set> not found - using default parameters

read problem <../../Split_data/output/parkin/6/1_sample_parkin.logreg>
============

File name	:	../../Split_data/output/parkin/6/1_sample_parkin.logreg
Problem name 	:	1_sample_parkin
Number of data	:	156
Number of var	:	22
The given data has linear independence

[dim=1] time: 0.00287
[dim=2] time: 0.005975
[dim=3] time: 0.008573
[dim=4] time: 0.011001
[dim=5] Time of forward = 0.013409sec.
AIC: 105.393
k: 4

[dim=22] time: 0.032411
[dim=21] time: 0.046655
[dim=20] time: 0.059191
[dim=19] time: 0.079811
[dim=18] time: 0.086302
[dim=17] time: 0.094336
[dim=16] time: 0.096749
[dim=15] time: 0.101255
[dim=14] time: 0.103246
[dim=13] time: 0.105707
[dim=12] time: 0.107671
[dim=11] time: 0.109758
[dim=10] time: 0.111139
[dim=9] time: 0.112842
[dim=8] time: 0.114481
[dim=7] Time of backward = 0.115623sec.
AIC: 96.9859
k: 8
